 BCC
   1.000
   -1.0000000000000000    1.0000000000000000    1.0000000000000000
    1.0000000000000000   -1.0000000000000000    1.0000000000000000
    1.0000000000000000    1.0000000000000000   -1.0000000000000000
   A
    1
Direct
    0.0000000000000000    0.0000000000000000    0.0000000000000000
